Translating instance to solver...

Set parameter TimeLimit to value 28800
Gurobi Optimizer version 11.0.2 build v11.0.2rc0 (linux64 - "Ubuntu 22.04.4 LTS")

CPU model: Intel(R) Xeon(R) Gold 5120 CPU @ 2.20GHz, instruction set [SSE2|AVX|AVX2|AVX512]
Thread count: 28 physical cores, 56 logical processors, using up to 28 threads

Academic license 2463511 - for non-commercial use only - registered to lu___@cefet-rj.br
Optimize a model with 40945 rows, 21383 columns and 96975 nonzeros
Model fingerprint: 0x702661d1
Variable types: 1 continuous, 21382 integer (21340 binary)
Coefficient statistics:
  Matrix range     [1e+00, 1e+05]
  Objective range  [3e-01, 8e-01]
  Bounds range     [1e+00, 4e+01]
  RHS range        [1e+00, 4e+01]
Presolve removed 32334 rows and 17818 columns
Presolve time: 0.57s
Presolved: 8611 rows, 3565 columns, 25866 nonzeros
Variable types: 0 continuous, 3565 integer (3524 binary)

Root relaxation: objective 6.117820e-01, 758 iterations, 0.04 seconds (0.05 work units)

    Nodes    |    Current Node    |     Objective Bounds      |     Work
 Expl Unexpl |  Obj  Depth IntInf | Incumbent    BestBd   Gap | It/Node Time

     0     0    0.61178    0   12          -    0.61178      -     -    0s
H    0     0                       1.2235640    0.61178  50.0%     -    1s
H    0     0                       0.9176730    0.61178  33.3%     -    1s
     0     0    0.61178    0   16    0.91767    0.61178  33.3%     -    1s
     0     0    0.61178    0   11    0.91767    0.61178  33.3%     -    1s
     0     0    0.61178    0   11    0.91767    0.61178  33.3%     -    1s
     0     0    0.61178    0   82    0.91767    0.61178  33.3%     -    1s
     0     0    0.61178    0   19    0.91767    0.61178  33.3%     -    1s
     0     0    0.61178    0   43    0.91767    0.61178  33.3%     -    1s
     0     0    0.61178    0   63    0.91767    0.61178  33.3%     -    1s
     0     0    0.61178    0   46    0.91767    0.61178  33.3%     -    1s
     0     0    0.61178    0   42    0.91767    0.61178  33.3%     -    1s
     0     0    0.61178    0   21    0.91767    0.61178  33.3%     -    1s
     0     0    0.61178    0   45    0.91767    0.61178  33.3%     -    1s
     0     0    0.61178    0   39    0.91767    0.61178  33.3%     -    1s
     0     0    0.61178    0   30    0.91767    0.61178  33.3%     -    1s

Cutting planes:
  Learned: 132
  Implied bound: 6
  MIR: 6
  Zero half: 3
  RLT: 1
  Relax-and-lift: 11

Explored 1 nodes (2619 simplex iterations) in 1.51 seconds (1.13 work units)
Thread count was 28 (of 56 available processors)

Solution count 2: 0.917673 1.22356 

Optimal solution found (tolerance 1.00e-04)
Best objective 9.176730000000e-01, best bound 9.176730000000e-01, gap 0.0000%

Solver Wallclock Time (for this epsilon): 1.5124719142913818 s
Python wallclock Time (for this epsilon): 4.468106746673584 s


Total Elapsed Time (since program call): 89.51030683517456 s

Results:

I = 0.9176730000000001 mA
C = 19.0 points
C ~= 7.6000000000000005 km^2

Minimum Epsilon for this instance = 9
Maximum Epsilon for this instance = 98

Current Epsilon = 18


Preprocessing Time (for this epsilon): 0.0067865848541259766 s


Updated solution vectors:
sol_I = [-0.611782,-0.9176730000000001]
sol_C = [11.0,19.0]
sol_eps = [9,18]
sol_gap = [0.0,0.0]
